Version identifier: 22.1.1.0 | 2022-11-28 | 9160aff4d
CPXPARAM_ClockType                               1
CPXPARAM_Read_DataCheck                          1
CPXPARAM_Threads                                 1
CPXPARAM_TimeLimit                               7200
CPXPARAM_MIP_Tolerances_AbsMIPGap                0
CPXPARAM_MIP_Tolerances_MIPGap                   0
CPXPARAM_MIP_Tolerances_Integrality              0
Tried aggregator 2 times.
MIP Presolve eliminated 3450 rows and 0 columns.
MIP Presolve modified 3060 coefficients.
Aggregator did 1000 substitutions.
Reduced MIP has 4250 rows, 2500 columns, and 12070 nonzeros.
Reduced MIP has 2500 binaries, 0 generals, 0 SOSs, and 0 indicators.
Presolve time = 0.03 sec. (20.79 ticks)
Found incumbent of value -1838.000000 after 0.06 sec. (39.76 ticks)
Probing time = 0.01 sec. (2.46 ticks)
Tried aggregator 1 time.
Detecting symmetries...
MIP Presolve eliminated 200 rows and 0 columns.
Reduced MIP has 4050 rows, 2500 columns, and 11070 nonzeros.
Reduced MIP has 2500 binaries, 0 generals, 0 SOSs, and 0 indicators.
Presolve time = 0.03 sec. (13.82 ticks)
Probing time = 0.01 sec. (2.36 ticks)
Clique table members: 7350.
MIP emphasis: balance optimality and feasibility.
MIP search method: dynamic search.
Parallel mode: none, using 1 thread.
Root relaxation solution time = 0.32 sec. (230.54 ticks)

        Nodes                                         Cuts/
   Node  Left     Objective  IInf  Best Integer    Best Bound    ItCnt     Gap

*     0+    0                        -1838.0000      500.0000           127.20%
      0     0      200.0000   756    -1838.0000      200.0000     2368  110.88%
*     0+    0                          148.0000      200.0000            35.14%
*     0+    0                          200.0000      200.0000             0.00%
      0     0        cutoff            200.0000      200.0000     2368    0.00%
Elapsed time = 1.46 sec. (1051.73 ticks, tree = 0.01 MB, solutions = 3)

Root node processing (before b&c):
  Real time             =    1.46 sec. (1051.91 ticks)
Sequential b&c:
  Real time             =    0.00 sec. (0.00 ticks)
                          ------------
Total (root+branch&cut) =    1.46 sec. (1051.91 ticks)
Solution is feasible.

---------------------
@@@ MIP_optimal
>>> Benchmark sw100-2.cnf k 2 OPT 200 TimeCost 2.239710569381714 TimeSolve 1.506127119064331 TimeRead 0.007843017578125 TimeTrans 0.7257404327392578
